p cnf 959 2460
51 -2 -1 0
-51 2 0
-51 1 0
52 -51 -3 0
-52 51 0
-52 3 0
53 -692 -693 0
-53 692 0
-53 693 0
54 -53 -6 0
-54 53 0
-54 6 0
55 -694 -695 0
-55 694 0
-55 695 0
56 -696 -7 0
-56 696 0
-56 7 0
57 -56 -697 0
-57 56 0
-57 697 0
58 -698 -55 0
-58 698 0
-58 55 0
59 -10 -2 0
-59 10 0
-59 2 0
60 -59 -11 0
-60 59 0
-60 11 0
61 -699 -58 0
-61 699 0
-61 58 0
62 -700 -701 0
-62 700 0
-62 701 0
63 -62 -13 0
-63 62 0
-63 13 0
64 -702 -61 0
-64 702 0
-64 61 0
65 -703 -693 0
-65 703 0
-65 693 0
66 -65 -15 0
-66 65 0
-66 15 0
67 -704 -64 0
-67 704 0
-67 64 0
68 -705 -706 0
-68 705 0
-68 706 0
69 -68 -11 0
-69 68 0
-69 11 0
70 -707 -67 0
-70 707 0
-70 67 0
71 -19 -18 0
-71 19 0
-71 18 0
72 -71 -708 0
-72 71 0
-72 708 0
73 -709 -70 0
-73 709 0
-73 70 0
74 -710 -8 0
-74 710 0
-74 8 0
75 -74 -22 0
-75 74 0
-75 22 0
76 -711 -73 0
-76 711 0
-76 73 0
77 -712 -23 0
-77 712 0
-77 23 0
78 -77 -11 0
-78 77 0
-78 11 0
79 -713 -76 0
-79 713 0
-79 76 0
80 -21 -703 0
-80 21 0
-80 703 0
81 -80 -25 0
-81 80 0
-81 25 0
82 -714 -79 0
-82 714 0
-82 79 0
83 -26 -701 0
-83 26 0
-83 701 0
84 -83 -27 0
-84 83 0
-84 27 0
85 -715 -82 0
-85 715 0
-85 82 0
86 -716 -717 0
-86 716 0
-86 717 0
87 -86 -9 0
-87 86 0
-87 9 0
88 -718 -85 0
-88 718 0
-88 85 0
89 -29 -25 0
-89 29 0
-89 25 0
90 -89 -30 0
-90 89 0
-90 30 0
91 -719 -88 0
-91 719 0
-91 88 0
92 -31 -15 0
-92 31 0
-92 15 0
93 -92 -32 0
-93 92 0
-93 32 0
94 -720 -91 0
-94 720 0
-94 91 0
95 -33 -721 0
-95 33 0
-95 721 0
96 -95 -4 0
-96 95 0
-96 4 0
97 -722 -94 0
-97 722 0
-97 94 0
98 -35 -34 0
-98 35 0
-98 34 0
99 -98 -15 0
-99 98 0
-99 15 0
100 -723 -97 0
-100 723 0
-100 97 0
101 -724 -7 0
-101 724 0
-101 7 0
102 -101 -36 0
-102 101 0
-102 36 0
103 -725 -100 0
-103 725 0
-103 100 0
104 -36 -703 0
-104 36 0
-104 703 0
105 -104 -37 0
-105 104 0
-105 37 0
106 -726 -103 0
-106 726 0
-106 103 0
107 -727 -728 0
-107 727 0
-107 728 0
108 -107 -729 0
-108 107 0
-108 729 0
109 -730 -106 0
-109 730 0
-109 106 0
110 -42 -731 0
-110 42 0
-110 731 0
111 -110 -43 0
-111 110 0
-111 43 0
112 -732 -109 0
-112 732 0
-112 109 0
113 -42 -727 0
-113 42 0
-113 727 0
114 -113 -13 0
-114 113 0
-114 13 0
115 -733 -112 0
-115 733 0
-115 112 0
116 -734 -716 0
-116 734 0
-116 716 0
117 -116 -735 0
-117 116 0
-117 735 0
118 -736 -115 0
-118 736 0
-118 115 0
119 -44 -39 0
-119 44 0
-119 39 0
120 -119 -737 0
-120 119 0
-120 737 0
121 -738 -118 0
-121 738 0
-121 118 0
122 -18 -739 0
-122 18 0
-122 739 0
123 -122 -6 0
-123 122 0
-123 6 0
124 -740 -121 0
-124 740 0
-124 121 0
125 -10 -692 0
-125 10 0
-125 692 0
126 -125 -741 0
-126 125 0
-126 741 0
127 -742 -124 0
-127 742 0
-127 124 0
128 -743 -13 0
-128 743 0
-128 13 0
129 -128 -712 0
-129 128 0
-129 712 0
130 -744 -127 0
-130 744 0
-130 127 0
131 -14 -10 0
-131 14 0
-131 10 0
132 -131 -745 0
-132 131 0
-132 745 0
133 -746 -130 0
-133 746 0
-133 130 0
134 -33 -21 0
-134 33 0
-134 21 0
135 -134 -46 0
-135 134 0
-135 46 0
136 -747 -133 0
-136 747 0
-136 133 0
137 -743 -38 0
-137 743 0
-137 38 0
138 -137 -724 0
-138 137 0
-138 724 0
139 -748 -136 0
-139 748 0
-139 136 0
140 -749 -14 0
-140 749 0
-140 14 0
141 -140 -692 0
-141 140 0
-141 692 0
142 -750 -139 0
-142 750 0
-142 139 0
143 -14 -717 0
-143 14 0
-143 717 0
144 -143 -708 0
-144 143 0
-144 708 0
145 -751 -142 0
-145 751 0
-145 142 0
146 -743 -10 0
-146 743 0
-146 10 0
147 -146 -11 0
-147 146 0
-147 11 0
148 -752 -145 0
-148 752 0
-148 145 0
149 -34 -753 0
-149 34 0
-149 753 0
150 -149 -737 0
-150 149 0
-150 737 0
151 -754 -148 0
-151 754 0
-151 148 0
152 -755 -3 0
-152 755 0
-152 3 0
153 -152 -697 0
-153 152 0
-153 697 0
154 -756 -151 0
-154 756 0
-154 151 0
155 -41 -8 0
-155 41 0
-155 8 0
156 -155 -708 0
-156 155 0
-156 708 0
157 -757 -154 0
-157 757 0
-157 154 0
158 -46 -21 0
-158 46 0
-158 21 0
159 -158 -758 0
-159 158 0
-159 758 0
160 -759 -157 0
-160 759 0
-160 157 0
161 -710 -7 0
-161 710 0
-161 7 0
162 -161 -29 0
-162 161 0
-162 29 0
163 -760 -160 0
-163 760 0
-163 160 0
164 -741 -18 0
-164 741 0
-164 18 0
165 -164 -735 0
-165 164 0
-165 735 0
166 -761 -163 0
-166 761 0
-166 163 0
167 -47 -26 0
-167 47 0
-167 26 0
168 -167 -762 0
-168 167 0
-168 762 0
169 -763 -166 0
-169 763 0
-169 166 0
170 -706 -12 0
-170 706 0
-170 12 0
171 -170 -743 0
-171 170 0
-171 743 0
172 -764 -169 0
-172 764 0
-172 169 0
173 -38 -26 0
-173 38 0
-173 26 0
174 -173 -7 0
-174 173 0
-174 7 0
175 -765 -172 0
-175 765 0
-175 172 0
176 -731 -706 0
-176 731 0
-176 706 0
177 -176 -45 0
-177 176 0
-177 45 0
178 -766 -175 0
-178 766 0
-178 175 0
179 -721 -2 0
-179 721 0
-179 2 0
180 -179 -767 0
-180 179 0
-180 767 0
181 -768 -178 0
-181 768 0
-181 178 0
182 -703 -739 0
-182 703 0
-182 739 0
183 -182 -769 0
-183 182 0
-183 769 0
184 -770 -181 0
-184 770 0
-184 181 0
185 -771 -7 0
-185 771 0
-185 7 0
186 -185 -772 0
-186 185 0
-186 772 0
187 -773 -184 0
-187 773 0
-187 184 0
188 -42 -771 0
-188 42 0
-188 771 0
189 -188 -9 0
-189 188 0
-189 9 0
190 -774 -187 0
-190 774 0
-190 187 0
191 -38 -1 0
-191 38 0
-191 1 0
192 -191 -45 0
-192 191 0
-192 45 0
193 -775 -190 0
-193 775 0
-193 190 0
194 -49 -41 0
-194 49 0
-194 41 0
195 -194 -697 0
-195 194 0
-195 697 0
196 -776 -193 0
-196 776 0
-196 193 0
197 -25 -10 0
-197 25 0
-197 10 0
198 -197 -36 0
-198 197 0
-198 36 0
199 -777 -196 0
-199 777 0
-199 196 0
200 -44 -778 0
-200 44 0
-200 778 0
201 -200 -31 0
-201 200 0
-201 31 0
202 -779 -199 0
-202 779 0
-202 199 0
203 -734 -16 0
-203 734 0
-203 16 0
204 -203 -780 0
-204 203 0
-204 780 0
205 -781 -202 0
-205 781 0
-205 202 0
206 -734 -703 0
-206 734 0
-206 703 0
207 -206 -724 0
-207 206 0
-207 724 0
208 -782 -205 0
-208 782 0
-208 205 0
209 -203 -769 0
-209 203 0
-209 769 0
210 -783 -208 0
-210 783 0
-210 208 0
211 -701 -693 0
-211 701 0
-211 693 0
212 -211 -36 0
-212 211 0
-212 36 0
213 -784 -210 0
-213 784 0
-213 210 0
214 -203 -743 0
-214 203 0
-214 743 0
215 -785 -213 0
-215 785 0
-215 213 0
216 -17 -717 0
-216 17 0
-216 717 0
217 -216 -15 0
-217 216 0
-217 15 0
218 -786 -215 0
-218 786 0
-218 215 0
219 -34 -700 0
-219 34 0
-219 700 0
220 -219 -743 0
-220 219 0
-220 743 0
221 -787 -218 0
-221 787 0
-221 218 0
222 -788 -24 0
-222 788 0
-222 24 0
223 -222 -735 0
-223 222 0
-223 735 0
224 -789 -221 0
-224 789 0
-224 221 0
225 -755 -708 0
-225 755 0
-225 708 0
226 -225 -697 0
-226 225 0
-226 697 0
227 -790 -224 0
-227 790 0
-227 224 0
228 -42 -693 0
-228 42 0
-228 693 0
229 -228 -717 0
-229 228 0
-229 717 0
230 -791 -227 0
-230 791 0
-230 227 0
231 -49 -9 0
-231 49 0
-231 9 0
232 -231 -27 0
-232 231 0
-232 27 0
233 -792 -230 0
-233 792 0
-233 230 0
234 -38 -712 0
-234 38 0
-234 712 0
235 -234 -769 0
-235 234 0
-235 769 0
236 -793 -233 0
-236 793 0
-236 233 0
237 -794 -739 0
-237 794 0
-237 739 0
238 -237 -795 0
-238 237 0
-238 795 0
239 -796 -236 0
-239 796 0
-239 236 0
240 -778 -7 0
-240 778 0
-240 7 0
241 -240 -708 0
-241 240 0
-241 708 0
242 -797 -239 0
-242 797 0
-242 239 0
243 -727 -21 0
-243 727 0
-243 21 0
244 -243 -29 0
-244 243 0
-244 29 0
245 -798 -242 0
-245 798 0
-245 242 0
246 -724 -710 0
-246 724 0
-246 710 0
247 -246 -32 0
-247 246 0
-247 32 0
248 -799 -245 0
-248 799 0
-248 245 0
249 -788 -731 0
-249 788 0
-249 731 0
250 -249 -48 0
-250 249 0
-250 48 0
251 -800 -248 0
-251 800 0
-251 248 0
252 -46 -727 0
-252 46 0
-252 727 0
253 -252 -712 0
-253 252 0
-253 712 0
254 -801 -251 0
-254 801 0
-254 251 0
255 -802 -762 0
-255 802 0
-255 762 0
256 -255 -9 0
-256 255 0
-256 9 0
257 -803 -254 0
-257 803 0
-257 254 0
258 -755 -2 0
-258 755 0
-258 2 0
259 -258 -741 0
-259 258 0
-259 741 0
260 -804 -257 0
-260 804 0
-260 257 0
261 -716 -762 0
-261 716 0
-261 762 0
262 -261 -735 0
-262 261 0
-262 735 0
263 -805 -260 0
-263 805 0
-263 260 0
264 -44 -771 0
-264 44 0
-264 771 0
265 -264 -40 0
-265 264 0
-265 40 0
266 -806 -263 0
-266 806 0
-266 263 0
267 -716 -700 0
-267 716 0
-267 700 0
268 -267 -41 0
-268 267 0
-268 41 0
269 -807 -266 0
-269 807 0
-269 266 0
270 -25 -701 0
-270 25 0
-270 701 0
271 -270 -22 0
-271 270 0
-271 22 0
272 -808 -269 0
-272 808 0
-272 269 0
273 -26 -717 0
-273 26 0
-273 717 0
274 -273 -24 0
-274 273 0
-274 24 0
275 -809 -272 0
-275 809 0
-275 272 0
276 -17 -706 0
-276 17 0
-276 706 0
277 -276 -745 0
-277 276 0
-277 745 0
278 -810 -275 0
-278 810 0
-278 275 0
279 -44 -753 0
-279 44 0
-279 753 0
280 -279 -701 0
-280 279 0
-280 701 0
281 -811 -278 0
-281 811 0
-281 278 0
282 -25 -1 0
-282 25 0
-282 1 0
283 -282 -36 0
-283 282 0
-283 36 0
284 -812 -281 0
-284 812 0
-284 281 0
285 -33 -13 0
-285 33 0
-285 13 0
286 -285 -20 0
-286 285 0
-286 20 0
287 -813 -284 0
-287 813 0
-287 284 0
288 -771 -724 0
-288 771 0
-288 724 0
289 -288 -10 0
-289 288 0
-289 10 0
290 -814 -287 0
-290 814 0
-290 287 0
291 -753 -2 0
-291 753 0
-291 2 0
292 -291 -42 0
-292 291 0
-292 42 0
293 -815 -290 0
-293 815 0
-293 290 0
294 -38 -12 0
-294 38 0
-294 12 0
295 -294 -767 0
-295 294 0
-295 767 0
296 -816 -293 0
-296 816 0
-296 293 0
297 -49 -703 0
-297 49 0
-297 703 0
298 -297 -769 0
-298 297 0
-298 769 0
299 -817 -296 0
-299 817 0
-299 296 0
300 -44 -701 0
-300 44 0
-300 701 0
301 -300 -32 0
-301 300 0
-301 32 0
302 -818 -299 0
-302 818 0
-302 299 0
303 -47 -8 0
-303 47 0
-303 8 0
304 -303 -724 0
-304 303 0
-304 724 0
305 -819 -302 0
-305 819 0
-305 302 0
306 -795 -23 0
-306 795 0
-306 23 0
307 -306 -735 0
-307 306 0
-307 735 0
308 -820 -305 0
-308 820 0
-308 305 0
309 -729 -739 0
-309 729 0
-309 739 0
310 -309 -37 0
-310 309 0
-310 37 0
311 -821 -308 0
-311 821 0
-311 308 0
312 -755 -1 0
-312 755 0
-312 1 0
313 -312 -13 0
-313 312 0
-313 13 0
314 -822 -311 0
-314 822 0
-314 311 0
315 -12 -701 0
-315 12 0
-315 701 0
316 -315 -13 0
-316 315 0
-316 13 0
317 -823 -314 0
-317 823 0
-317 314 0
318 -31 -778 0
-318 31 0
-318 778 0
319 -318 -37 0
-319 318 0
-319 37 0
320 -824 -317 0
-320 824 0
-320 317 0
321 -42 -2 0
-321 42 0
-321 2 0
322 -321 -5 0
-322 321 0
-322 5 0
323 -825 -320 0
-323 825 0
-323 320 0
324 -734 -762 0
-324 734 0
-324 762 0
325 -324 -769 0
-325 324 0
-325 769 0
326 -826 -323 0
-326 826 0
-326 323 0
327 -32 -693 0
-327 32 0
-327 693 0
328 -327 -30 0
-328 327 0
-328 30 0
329 -827 -326 0
-329 827 0
-329 326 0
330 -44 -724 0
-330 44 0
-330 724 0
331 -330 -769 0
-331 330 0
-331 769 0
332 -828 -329 0
-332 828 0
-332 329 0
333 -33 -701 0
-333 33 0
-333 701 0
334 -333 -50 0
-334 333 0
-334 50 0
335 -829 -332 0
-335 829 0
-335 332 0
336 -294 -36 0
-336 294 0
-336 36 0
337 -830 -335 0
-337 830 0
-337 335 0
338 -39 -16 0
-338 39 0
-338 16 0
339 -338 -708 0
-339 338 0
-339 708 0
340 -831 -337 0
-340 831 0
-340 337 0
341 -48 -1 0
-341 48 0
-341 1 0
342 -341 -832 0
-342 341 0
-342 832 0
343 -833 -340 0
-343 833 0
-343 340 0
344 -200 -2 0
-344 200 0
-344 2 0
345 -834 -343 0
-345 834 0
-345 343 0
346 -18 -1 0
-346 18 0
-346 1 0
347 -346 -25 0
-347 346 0
-347 25 0
348 -835 -345 0
-348 835 0
-348 345 0
349 -49 -836 0
-349 49 0
-349 836 0
350 -349 -22 0
-350 349 0
-350 22 0
351 -837 -348 0
-351 837 0
-351 348 0
352 -45 -758 0
-352 45 0
-352 758 0
353 -352 -15 0
-353 352 0
-353 15 0
354 -838 -351 0
-354 838 0
-354 351 0
355 -755 -802 0
-355 755 0
-355 802 0
356 -355 -32 0
-356 355 0
-356 32 0
357 -839 -354 0
-357 839 0
-357 354 0
358 -716 -18 0
-358 716 0
-358 18 0
359 -358 -11 0
-359 358 0
-359 11 0
360 -840 -357 0
-360 840 0
-360 357 0
361 -734 -753 0
-361 734 0
-361 753 0
362 -361 -841 0
-362 361 0
-362 841 0
363 -842 -360 0
-363 842 0
-363 360 0
364 -49 -753 0
-364 49 0
-364 753 0
365 -364 -5 0
-365 364 0
-365 5 0
366 -843 -363 0
-366 843 0
-366 363 0
367 -44 -727 0
-367 44 0
-367 727 0
368 -367 -2 0
-368 367 0
-368 2 0
369 -844 -366 0
-369 844 0
-369 366 0
370 -36 -778 0
-370 36 0
-370 778 0
371 -370 -37 0
-371 370 0
-371 37 0
372 -845 -369 0
-372 845 0
-372 369 0
373 -19 -4 0
-373 19 0
-373 4 0
374 -373 -15 0
-374 373 0
-374 15 0
375 -846 -372 0
-375 846 0
-375 372 0
376 -758 -5 0
-376 758 0
-376 5 0
377 -376 -37 0
-377 376 0
-377 37 0
378 -847 -375 0
-378 847 0
-378 375 0
379 -848 -8 0
-379 848 0
-379 8 0
380 -379 -712 0
-380 379 0
-380 712 0
381 -849 -378 0
-381 849 0
-381 378 0
382 -40 -24 0
-382 40 0
-382 24 0
383 -382 -9 0
-383 382 0
-383 9 0
384 -850 -381 0
-384 850 0
-384 381 0
385 -48 -34 0
-385 48 0
-385 34 0
386 -385 -37 0
-386 385 0
-386 37 0
387 -851 -384 0
-387 851 0
-387 384 0
388 -743 -724 0
-388 743 0
-388 724 0
389 -388 -780 0
-389 388 0
-389 780 0
390 -852 -387 0
-390 852 0
-390 387 0
391 -788 -706 0
-391 788 0
-391 706 0
392 -391 -32 0
-392 391 0
-392 32 0
393 -853 -390 0
-393 853 0
-393 390 0
394 -724 -25 0
-394 724 0
-394 25 0
395 -394 -737 0
-395 394 0
-395 737 0
396 -854 -393 0
-396 854 0
-396 393 0
397 -49 -794 0
-397 49 0
-397 794 0
398 -397 -855 0
-398 397 0
-398 855 0
399 -856 -396 0
-399 856 0
-399 396 0
400 -20 -693 0
-400 20 0
-400 693 0
401 -400 -9 0
-401 400 0
-401 9 0
402 -857 -399 0
-402 857 0
-402 399 0
403 -31 -21 0
-403 31 0
-403 21 0
404 -403 -858 0
-404 403 0
-404 858 0
405 -859 -402 0
-405 859 0
-405 402 0
406 -753 -739 0
-406 753 0
-406 739 0
407 -406 -32 0
-407 406 0
-407 32 0
408 -860 -405 0
-408 860 0
-408 405 0
409 -741 -10 0
-409 741 0
-409 10 0
410 -409 -735 0
-410 409 0
-410 735 0
411 -861 -408 0
-411 861 0
-411 408 0
412 -33 -706 0
-412 33 0
-412 706 0
413 -412 -36 0
-413 412 0
-413 36 0
414 -862 -411 0
-414 862 0
-414 411 0
415 -39 -767 0
-415 39 0
-415 767 0
416 -415 -795 0
-416 415 0
-416 795 0
417 -863 -414 0
-417 863 0
-417 414 0
418 -841 -710 0
-418 841 0
-418 710 0
419 -418 -701 0
-419 418 0
-419 701 0
420 -864 -417 0
-420 864 0
-420 417 0
421 -848 -710 0
-421 848 0
-421 710 0
422 -421 -40 0
-422 421 0
-422 40 0
423 -865 -420 0
-423 865 0
-423 420 0
424 -46 -18 0
-424 46 0
-424 18 0
425 -424 -780 0
-425 424 0
-425 780 0
426 -866 -423 0
-426 866 0
-426 423 0
427 -26 -16 0
-427 26 0
-427 16 0
428 -427 -717 0
-428 427 0
-428 717 0
429 -867 -426 0
-429 867 0
-429 426 0
430 -734 -772 0
-430 734 0
-430 772 0
431 -430 -769 0
-431 430 0
-431 769 0
432 -868 -429 0
-432 868 0
-432 429 0
433 -724 -3 0
-433 724 0
-433 3 0
434 -433 -795 0
-434 433 0
-434 795 0
435 -869 -432 0
-435 869 0
-435 432 0
436 -25 -16 0
-436 25 0
-436 16 0
437 -436 -697 0
-437 436 0
-437 697 0
438 -870 -435 0
-438 870 0
-438 435 0
439 -802 -739 0
-439 802 0
-439 739 0
440 -439 -721 0
-440 439 0
-440 721 0
441 -871 -438 0
-441 871 0
-441 438 0
442 -848 -6 0
-442 848 0
-442 6 0
443 -442 -32 0
-443 442 0
-443 32 0
444 -872 -441 0
-444 872 0
-444 441 0
445 -700 -4 0
-445 700 0
-445 4 0
446 -445 -758 0
-446 445 0
-446 758 0
447 -873 -444 0
-447 873 0
-447 444 0
448 -701 -7 0
-448 701 0
-448 7 0
449 -448 -43 0
-449 448 0
-449 43 0
450 -874 -447 0
-450 874 0
-450 447 0
451 -703 -721 0
-451 703 0
-451 721 0
452 -451 -795 0
-452 451 0
-452 795 0
453 -875 -450 0
-453 875 0
-453 450 0
454 -21 -7 0
-454 21 0
-454 7 0
455 -454 -34 0
-455 454 0
-455 34 0
456 -876 -453 0
-456 876 0
-456 453 0
457 -427 -836 0
-457 427 0
-457 836 0
458 -877 -456 0
-458 877 0
-458 456 0
459 -21 -739 0
-459 21 0
-459 739 0
460 -459 -701 0
-460 459 0
-460 701 0
461 -878 -458 0
-461 878 0
-461 458 0
462 -724 -693 0
-462 724 0
-462 693 0
463 -462 -32 0
-463 462 0
-463 32 0
464 -879 -461 0
-464 879 0
-464 461 0
465 -34 -880 0
-465 34 0
-465 880 0
466 -465 -836 0
-466 465 0
-466 836 0
467 -881 -464 0
-467 881 0
-467 464 0
468 -734 -4 0
-468 734 0
-468 4 0
469 -468 -745 0
-469 468 0
-469 745 0
470 -882 -467 0
-470 882 0
-470 467 0
471 -291 -795 0
-471 291 0
-471 795 0
472 -883 -470 0
-472 883 0
-472 470 0
473 -884 -12 0
-473 884 0
-473 12 0
474 -473 -703 0
-474 473 0
-474 703 0
475 -885 -472 0
-475 885 0
-475 472 0
476 -50 -46 0
-476 50 0
-476 46 0
477 -476 -36 0
-477 476 0
-477 36 0
478 -886 -475 0
-478 886 0
-478 475 0
479 -788 -31 0
-479 788 0
-479 31 0
480 -479 -27 0
-480 479 0
-480 27 0
481 -887 -478 0
-481 887 0
-481 478 0
482 -34 -767 0
-482 34 0
-482 767 0
483 -482 -9 0
-483 482 0
-483 9 0
484 -888 -481 0
-484 888 0
-484 481 0
485 -880 -10 0
-485 880 0
-485 10 0
486 -485 -712 0
-486 485 0
-486 712 0
487 -889 -484 0
-487 889 0
-487 484 0
488 -6 -693 0
-488 6 0
-488 693 0
489 -488 -832 0
-489 488 0
-489 832 0
490 -890 -487 0
-490 890 0
-490 487 0
491 -884 -1 0
-491 884 0
-491 1 0
492 -491 -734 0
-492 491 0
-492 734 0
493 -891 -490 0
-493 891 0
-493 490 0
494 -743 -700 0
-494 743 0
-494 700 0
495 -494 -701 0
-495 494 0
-495 701 0
496 -892 -493 0
-496 892 0
-496 493 0
497 -802 -708 0
-497 802 0
-497 708 0
498 -497 -697 0
-498 497 0
-498 697 0
499 -893 -496 0
-499 893 0
-499 496 0
500 -32 -7 0
-500 32 0
-500 7 0
501 -500 -832 0
-501 500 0
-501 832 0
502 -894 -499 0
-502 894 0
-502 499 0
503 -12 -762 0
-503 12 0
-503 762 0
504 -503 -24 0
-504 503 0
-504 24 0
505 -895 -502 0
-505 895 0
-505 502 0
506 -491 -13 0
-506 491 0
-506 13 0
507 -896 -505 0
-507 896 0
-507 505 0
508 -44 -26 0
-508 44 0
-508 26 0
509 -508 -45 0
-509 508 0
-509 45 0
510 -897 -507 0
-510 897 0
-510 507 0
511 -45 -42 0
-511 45 0
-511 42 0
512 -511 -735 0
-512 511 0
-512 735 0
513 -898 -510 0
-513 898 0
-513 510 0
514 -729 -716 0
-514 729 0
-514 716 0
515 -514 -717 0
-515 514 0
-515 717 0
516 -899 -513 0
-516 899 0
-516 513 0
517 -40 -15 0
-517 40 0
-517 15 0
518 -517 -20 0
-518 517 0
-518 20 0
519 -900 -516 0
-519 900 0
-519 516 0
520 -22 -17 0
-520 22 0
-520 17 0
521 -520 -9 0
-521 520 0
-521 9 0
522 -901 -519 0
-522 901 0
-522 519 0
523 -39 -705 0
-523 39 0
-523 705 0
524 -523 -745 0
-524 523 0
-524 745 0
525 -902 -522 0
-525 902 0
-525 522 0
526 -161 -717 0
-526 161 0
-526 717 0
527 -903 -525 0
-527 903 0
-527 525 0
528 -8 -692 0
-528 8 0
-528 692 0
529 -528 -36 0
-529 528 0
-529 36 0
530 -904 -527 0
-530 904 0
-530 527 0
531 -743 -880 0
-531 743 0
-531 880 0
532 -531 -724 0
-532 531 0
-532 724 0
533 -905 -530 0
-533 905 0
-533 530 0
534 -741 -880 0
-534 741 0
-534 880 0
535 -534 -30 0
-535 534 0
-535 30 0
536 -906 -533 0
-536 906 0
-536 533 0
537 -743 -778 0
-537 743 0
-537 778 0
538 -537 -3 0
-538 537 0
-538 3 0
539 -907 -536 0
-539 907 0
-539 536 0
540 -42 -753 0
-540 42 0
-540 753 0
541 -540 -858 0
-541 540 0
-541 858 0
542 -908 -539 0
-542 908 0
-542 539 0
543 -848 -17 0
-543 848 0
-543 17 0
544 -543 -19 0
-544 543 0
-544 19 0
545 -909 -542 0
-545 909 0
-545 542 0
546 -34 -780 0
-546 34 0
-546 780 0
547 -546 -741 0
-547 546 0
-547 741 0
548 -910 -545 0
-548 910 0
-548 545 0
549 -34 -23 0
-549 34 0
-549 23 0
550 -549 -19 0
-550 549 0
-550 19 0
551 -911 -548 0
-551 911 0
-551 548 0
552 -33 -780 0
-552 33 0
-552 780 0
553 -552 -37 0
-553 552 0
-553 37 0
554 -912 -551 0
-554 912 0
-554 551 0
555 -45 -771 0
-555 45 0
-555 771 0
556 -555 -741 0
-556 555 0
-556 741 0
557 -913 -554 0
-557 913 0
-557 554 0
558 -40 -717 0
-558 40 0
-558 717 0
559 -558 -43 0
-559 558 0
-559 43 0
560 -914 -557 0
-560 914 0
-560 557 0
561 -26 -753 0
-561 26 0
-561 753 0
562 -561 -32 0
-562 561 0
-562 32 0
563 -915 -560 0
-563 915 0
-563 560 0
564 -8 -739 0
-564 8 0
-564 739 0
565 -564 -772 0
-565 564 0
-565 772 0
566 -916 -563 0
-566 916 0
-566 563 0
567 -26 -700 0
-567 26 0
-567 700 0
568 -567 -701 0
-568 567 0
-568 701 0
569 -917 -566 0
-569 917 0
-569 566 0
570 -727 -884 0
-570 727 0
-570 884 0
571 -570 -848 0
-571 570 0
-571 848 0
572 -918 -569 0
-572 918 0
-572 569 0
573 -743 -2 0
-573 743 0
-573 2 0
574 -573 -708 0
-574 573 0
-574 708 0
575 -919 -572 0
-575 919 0
-575 572 0
576 -743 -884 0
-576 743 0
-576 884 0
577 -576 -31 0
-577 576 0
-577 31 0
578 -920 -575 0
-578 920 0
-578 575 0
579 -38 -739 0
-579 38 0
-579 739 0
580 -579 -724 0
-580 579 0
-580 724 0
581 -921 -578 0
-581 921 0
-581 578 0
582 -716 -705 0
-582 716 0
-582 705 0
583 -582 -745 0
-583 582 0
-583 745 0
584 -922 -581 0
-584 922 0
-584 581 0
585 -771 -6 0
-585 771 0
-585 6 0
586 -585 -780 0
-586 585 0
-586 780 0
587 -923 -584 0
-587 923 0
-587 584 0
588 -42 -721 0
-588 42 0
-588 721 0
589 -588 -769 0
-589 588 0
-589 769 0
590 -924 -587 0
-590 924 0
-590 587 0
591 -517 -32 0
-591 517 0
-591 32 0
592 -925 -590 0
-592 925 0
-592 590 0
593 -40 -712 0
-593 40 0
-593 712 0
594 -593 -11 0
-594 593 0
-594 11 0
595 -926 -592 0
-595 926 0
-595 592 0
596 -794 -29 0
-596 794 0
-596 29 0
597 -596 -832 0
-597 596 0
-597 832 0
598 -927 -595 0
-598 927 0
-598 595 0
599 -794 -716 0
-599 794 0
-599 716 0
600 -599 -36 0
-600 599 0
-600 36 0
601 -928 -598 0
-601 928 0
-601 598 0
602 -34 -7 0
-602 34 0
-602 7 0
603 -602 -15 0
-603 602 0
-603 15 0
604 -929 -601 0
-604 929 0
-604 601 0
605 -23 -762 0
-605 23 0
-605 762 0
606 -605 -692 0
-606 605 0
-606 692 0
607 -930 -604 0
-607 930 0
-607 604 0
608 -40 -758 0
-608 40 0
-608 758 0
609 -608 -735 0
-609 608 0
-609 735 0
610 -931 -607 0
-610 931 0
-610 607 0
611 -503 -17 0
-611 503 0
-611 17 0
612 -932 -610 0
-612 932 0
-612 610 0
613 -788 -28 0
-613 788 0
-613 28 0
614 -613 -794 0
-614 613 0
-614 794 0
615 -933 -612 0
-615 933 0
-615 612 0
616 -755 -712 0
-616 755 0
-616 712 0
617 -616 -27 0
-617 616 0
-617 27 0
618 -934 -615 0
-618 934 0
-618 615 0
619 -693 -3 0
-619 693 0
-619 3 0
620 -619 -29 0
-620 619 0
-620 29 0
621 -935 -618 0
-621 935 0
-621 618 0
622 -25 -8 0
-622 25 0
-622 8 0
623 -622 -31 0
-623 622 0
-623 31 0
624 -936 -621 0
-624 936 0
-624 621 0
625 -716 -880 0
-625 716 0
-625 880 0
626 -625 -794 0
-626 625 0
-626 794 0
627 -937 -624 0
-627 937 0
-627 624 0
628 -788 -1 0
-628 788 0
-628 1 0
629 -628 -41 0
-629 628 0
-629 41 0
630 -938 -627 0
-630 938 0
-630 627 0
631 -47 -23 0
-631 47 0
-631 23 0
632 -631 -30 0
-632 631 0
-632 30 0
633 -939 -630 0
-633 939 0
-633 630 0
634 -802 -23 0
-634 802 0
-634 23 0
635 -634 -884 0
-635 634 0
-635 884 0
636 -940 -633 0
-636 940 0
-636 633 0
637 -25 -17 0
-637 25 0
-637 17 0
638 -637 -20 0
-638 637 0
-638 20 0
639 -941 -636 0
-639 941 0
-639 636 0
640 -771 -697 0
-640 771 0
-640 697 0
641 -640 -32 0
-641 640 0
-641 32 0
642 -942 -639 0
-642 942 0
-642 639 0
643 -848 -721 0
-643 848 0
-643 721 0
644 -643 -832 0
-644 643 0
-644 832 0
645 -943 -642 0
-645 943 0
-645 642 0
646 -727 -734 0
-646 727 0
-646 734 0
647 -646 -25 0
-647 646 0
-647 25 0
648 -944 -645 0
-648 944 0
-648 645 0
649 -23 -753 0
-649 23 0
-649 753 0
650 -649 -734 0
-650 649 0
-650 734 0
651 -945 -648 0
-651 945 0
-651 648 0
652 -734 -1 0
-652 734 0
-652 1 0
653 -652 -9 0
-653 652 0
-653 9 0
654 -946 -651 0
-654 946 0
-654 651 0
655 -749 -696 0
-655 749 0
-655 696 0
656 -655 -758 0
-656 655 0
-656 758 0
657 -947 -654 0
-657 947 0
-657 654 0
658 -45 -727 0
-658 45 0
-658 727 0
659 -658 -48 0
-659 658 0
-659 48 0
660 -948 -657 0
-660 948 0
-660 657 0
661 -788 -33 0
-661 788 0
-661 33 0
662 -661 -772 0
-662 661 0
-662 772 0
663 -949 -660 0
-663 949 0
-663 660 0
664 -46 -12 0
-664 46 0
-664 12 0
665 -664 -855 0
-665 664 0
-665 855 0
666 -950 -663 0
-666 950 0
-666 663 0
667 -194 -34 0
-667 194 0
-667 34 0
668 -951 -666 0
-668 951 0
-668 666 0
669 -712 -700 0
-669 712 0
-669 700 0
670 -669 -708 0
-670 669 0
-670 708 0
671 -952 -668 0
-671 952 0
-671 668 0
672 -50 -41 0
-672 50 0
-672 41 0
673 -672 -13 0
-673 672 0
-673 13 0
674 -953 -671 0
-674 953 0
-674 671 0
675 -39 -35 0
-675 39 0
-675 35 0
676 -675 -717 0
-676 675 0
-676 717 0
677 -954 -674 0
-677 954 0
-677 674 0
678 -29 -703 0
-678 29 0
-678 703 0
679 -678 -43 0
-679 678 0
-679 43 0
680 -955 -677 0
-680 955 0
-680 677 0
681 -514 -32 0
-681 514 0
-681 32 0
682 -956 -680 0
-682 956 0
-682 680 0
683 -734 -21 0
-683 734 0
-683 21 0
684 -683 -743 0
-684 683 0
-684 743 0
685 -957 -682 0
-685 957 0
-685 682 0
686 -16 -2 0
-686 16 0
-686 2 0
687 -686 -712 0
-687 686 0
-687 712 0
688 -958 -685 0
-688 958 0
-688 685 0
689 -45 -729 0
-689 45 0
-689 729 0
690 -689 -48 0
-690 689 0
-690 48 0
691 -959 -688 0
-691 959 0
-691 688 0
-692 -5 0
692 5 0
-693 -4 0
693 4 0
-694 -54 0
694 54 0
-695 -52 0
695 52 0
-696 -8 0
696 8 0
-697 -9 0
697 9 0
-698 -57 0
698 57 0
-699 -60 0
699 60 0
-700 -12 0
700 12 0
-701 -10 0
701 10 0
-702 -63 0
702 63 0
-703 -14 0
703 14 0
-704 -66 0
704 66 0
-705 -17 0
705 17 0
-706 -16 0
706 16 0
-707 -69 0
707 69 0
-708 -20 0
708 20 0
-709 -72 0
709 72 0
-710 -21 0
710 21 0
-711 -75 0
711 75 0
-712 -24 0
712 24 0
-713 -78 0
713 78 0
-714 -81 0
714 81 0
-715 -84 0
715 84 0
-716 -28 0
716 28 0
-717 -13 0
717 13 0
-718 -87 0
718 87 0
-719 -90 0
719 90 0
-720 -93 0
720 93 0
-721 -3 0
721 3 0
-722 -96 0
722 96 0
-723 -99 0
723 99 0
-724 -31 0
724 31 0
-725 -102 0
725 102 0
-726 -105 0
726 105 0
-727 -39 0
727 39 0
-728 -38 0
728 38 0
-729 -40 0
729 40 0
-730 -108 0
730 108 0
-731 -41 0
731 41 0
-732 -111 0
732 111 0
-733 -114 0
733 114 0
-734 -34 0
734 34 0
-735 -30 0
735 30 0
-736 -117 0
736 117 0
-737 -27 0
737 27 0
-738 -120 0
738 120 0
-739 -1 0
739 1 0
-740 -123 0
740 123 0
-741 -37 0
741 37 0
-742 -126 0
742 126 0
-743 -45 0
743 45 0
-744 -129 0
744 129 0
-745 -15 0
745 15 0
-746 -132 0
746 132 0
-747 -135 0
747 135 0
-748 -138 0
748 138 0
-749 -47 0
749 47 0
-750 -141 0
750 141 0
-751 -144 0
751 144 0
-752 -147 0
752 147 0
-753 -7 0
753 7 0
-754 -150 0
754 150 0
-755 -48 0
755 48 0
-756 -153 0
756 153 0
-757 -156 0
757 156 0
-758 -36 0
758 36 0
-759 -159 0
759 159 0
-760 -162 0
760 162 0
-761 -165 0
761 165 0
-762 -2 0
762 2 0
-763 -168 0
763 168 0
-764 -171 0
764 171 0
-765 -174 0
765 174 0
-766 -177 0
766 177 0
-767 -6 0
767 6 0
-768 -180 0
768 180 0
-769 -43 0
769 43 0
-770 -183 0
770 183 0
-771 -33 0
771 33 0
-772 -29 0
772 29 0
-773 -186 0
773 186 0
-774 -189 0
774 189 0
-775 -192 0
775 192 0
-776 -195 0
776 195 0
-777 -198 0
777 198 0
-778 -23 0
778 23 0
-779 -201 0
779 201 0
-780 -19 0
780 19 0
-781 -204 0
781 204 0
-782 -207 0
782 207 0
-783 -209 0
783 209 0
-784 -212 0
784 212 0
-785 -214 0
785 214 0
-786 -217 0
786 217 0
-787 -220 0
787 220 0
-788 -49 0
788 49 0
-789 -223 0
789 223 0
-790 -226 0
790 226 0
-791 -229 0
791 229 0
-792 -232 0
792 232 0
-793 -235 0
793 235 0
-794 -46 0
794 46 0
-795 -32 0
795 32 0
-796 -238 0
796 238 0
-797 -241 0
797 241 0
-798 -244 0
798 244 0
-799 -247 0
799 247 0
-800 -250 0
800 250 0
-801 -253 0
801 253 0
-802 -44 0
802 44 0
-803 -256 0
803 256 0
-804 -259 0
804 259 0
-805 -262 0
805 262 0
-806 -265 0
806 265 0
-807 -268 0
807 268 0
-808 -271 0
808 271 0
-809 -274 0
809 274 0
-810 -277 0
810 277 0
-811 -280 0
811 280 0
-812 -283 0
812 283 0
-813 -286 0
813 286 0
-814 -289 0
814 289 0
-815 -292 0
815 292 0
-816 -295 0
816 295 0
-817 -298 0
817 298 0
-818 -301 0
818 301 0
-819 -304 0
819 304 0
-820 -307 0
820 307 0
-821 -310 0
821 310 0
-822 -313 0
822 313 0
-823 -316 0
823 316 0
-824 -319 0
824 319 0
-825 -322 0
825 322 0
-826 -325 0
826 325 0
-827 -328 0
827 328 0
-828 -331 0
828 331 0
-829 -334 0
829 334 0
-830 -336 0
830 336 0
-831 -339 0
831 339 0
-832 -11 0
832 11 0
-833 -342 0
833 342 0
-834 -344 0
834 344 0
-835 -347 0
835 347 0
-836 -42 0
836 42 0
-837 -350 0
837 350 0
-838 -353 0
838 353 0
-839 -356 0
839 356 0
-840 -359 0
840 359 0
-841 -35 0
841 35 0
-842 -362 0
842 362 0
-843 -365 0
843 365 0
-844 -368 0
844 368 0
-845 -371 0
845 371 0
-846 -374 0
846 374 0
-847 -377 0
847 377 0
-848 -25 0
848 25 0
-849 -380 0
849 380 0
-850 -383 0
850 383 0
-851 -386 0
851 386 0
-852 -389 0
852 389 0
-853 -392 0
853 392 0
-854 -395 0
854 395 0
-855 -50 0
855 50 0
-856 -398 0
856 398 0
-857 -401 0
857 401 0
-858 -22 0
858 22 0
-859 -404 0
859 404 0
-860 -407 0
860 407 0
-861 -410 0
861 410 0
-862 -413 0
862 413 0
-863 -416 0
863 416 0
-864 -419 0
864 419 0
-865 -422 0
865 422 0
-866 -425 0
866 425 0
-867 -428 0
867 428 0
-868 -431 0
868 431 0
-869 -434 0
869 434 0
-870 -437 0
870 437 0
-871 -440 0
871 440 0
-872 -443 0
872 443 0
-873 -446 0
873 446 0
-874 -449 0
874 449 0
-875 -452 0
875 452 0
-876 -455 0
876 455 0
-877 -457 0
877 457 0
-878 -460 0
878 460 0
-879 -463 0
879 463 0
-880 -18 0
880 18 0
-881 -466 0
881 466 0
-882 -469 0
882 469 0
-883 -471 0
883 471 0
-884 -26 0
884 26 0
-885 -474 0
885 474 0
-886 -477 0
886 477 0
-887 -480 0
887 480 0
-888 -483 0
888 483 0
-889 -486 0
889 486 0
-890 -489 0
890 489 0
-891 -492 0
891 492 0
-892 -495 0
892 495 0
-893 -498 0
893 498 0
-894 -501 0
894 501 0
-895 -504 0
895 504 0
-896 -506 0
896 506 0
-897 -509 0
897 509 0
-898 -512 0
898 512 0
-899 -515 0
899 515 0
-900 -518 0
900 518 0
-901 -521 0
901 521 0
-902 -524 0
902 524 0
-903 -526 0
903 526 0
-904 -529 0
904 529 0
-905 -532 0
905 532 0
-906 -535 0
906 535 0
-907 -538 0
907 538 0
-908 -541 0
908 541 0
-909 -544 0
909 544 0
-910 -547 0
910 547 0
-911 -550 0
911 550 0
-912 -553 0
912 553 0
-913 -556 0
913 556 0
-914 -559 0
914 559 0
-915 -562 0
915 562 0
-916 -565 0
916 565 0
-917 -568 0
917 568 0
-918 -571 0
918 571 0
-919 -574 0
919 574 0
-920 -577 0
920 577 0
-921 -580 0
921 580 0
-922 -583 0
922 583 0
-923 -586 0
923 586 0
-924 -589 0
924 589 0
-925 -591 0
925 591 0
-926 -594 0
926 594 0
-927 -597 0
927 597 0
-928 -600 0
928 600 0
-929 -603 0
929 603 0
-930 -606 0
930 606 0
-931 -609 0
931 609 0
-932 -611 0
932 611 0
-933 -614 0
933 614 0
-934 -617 0
934 617 0
-935 -620 0
935 620 0
-936 -623 0
936 623 0
-937 -626 0
937 626 0
-938 -629 0
938 629 0
-939 -632 0
939 632 0
-940 -635 0
940 635 0
-941 -638 0
941 638 0
-942 -641 0
942 641 0
-943 -644 0
943 644 0
-944 -647 0
944 647 0
-945 -650 0
945 650 0
-946 -653 0
946 653 0
-947 -656 0
947 656 0
-948 -659 0
948 659 0
-949 -662 0
949 662 0
-950 -665 0
950 665 0
-951 -667 0
951 667 0
-952 -670 0
952 670 0
-953 -673 0
953 673 0
-954 -676 0
954 676 0
-955 -679 0
955 679 0
-956 -681 0
956 681 0
-957 -684 0
957 684 0
-958 -687 0
958 687 0
-959 -690 0
959 690 0
691 0
